(set-info :smt-lib-version 2.6)
(set-logic QF_UFLRA)
(set-info :source |
MathSat group

|)
(set-info :category "random")
(set-info :status sat)
(declare-fun x0 () Real)
(declare-fun x1 () Real)
(declare-fun x2 () Real)
(declare-fun x3 () Real)
(declare-fun x4 () Real)
(declare-fun x5 () Real)
(declare-fun x6 () Real)
(declare-fun x7 () Real)
(declare-fun x8 () Real)
(declare-fun x9 () Real)
(declare-fun x10 () Real)
(declare-fun x11 () Real)
(declare-fun x12 () Real)
(declare-fun x13 () Real)
(declare-fun x14 () Real)
(declare-fun x15 () Real)
(declare-fun x16 () Real)
(declare-fun x17 () Real)
(declare-fun x18 () Real)
(declare-fun x19 () Real)
(declare-fun x20 () Real)
(declare-fun x21 () Real)
(declare-fun x22 () Real)
(declare-fun x23 () Real)
(declare-fun x24 () Real)
(declare-fun x25 () Real)
(declare-fun x26 () Real)
(declare-fun x27 () Real)
(declare-fun x28 () Real)
(declare-fun x29 () Real)
(declare-fun x30 () Real)
(declare-fun x31 () Real)
(declare-fun x32 () Real)
(declare-fun x33 () Real)
(declare-fun x34 () Real)
(declare-fun x35 () Real)
(declare-fun x36 () Real)
(declare-fun x37 () Real)
(declare-fun x38 () Real)
(declare-fun x39 () Real)
(declare-fun x40 () Real)
(declare-fun x41 () Real)
(declare-fun x42 () Real)
(declare-fun x43 () Real)
(declare-fun x44 () Real)
(declare-fun x45 () Real)
(declare-fun x46 () Real)
(declare-fun x47 () Real)
(declare-fun x48 () Real)
(declare-fun x49 () Real)
(declare-fun f0_1 (Real) Real)
(declare-fun f0_2 (Real Real) Real)
(declare-fun f0_3 (Real Real Real) Real)
(declare-fun f0_4 (Real Real Real Real) Real)
(declare-fun P0 () Bool)
(declare-fun P1 () Bool)
(declare-fun P2 () Bool)
(declare-fun P3 () Bool)
(declare-fun P4 () Bool)
(declare-fun P5 () Bool)
(declare-fun P6 () Bool)
(declare-fun P7 () Bool)
(declare-fun P8 () Bool)
(declare-fun P9 () Bool)
(declare-fun P10 () Bool)
(declare-fun P11 () Bool)
(declare-fun P12 () Bool)
(declare-fun P13 () Bool)
(declare-fun P14 () Bool)
(declare-fun P15 () Bool)
(declare-fun P16 () Bool)
(declare-fun P17 () Bool)
(declare-fun P18 () Bool)
(declare-fun P19 () Bool)
(declare-fun P20 () Bool)
(declare-fun P21 () Bool)
(declare-fun P22 () Bool)
(declare-fun P23 () Bool)
(declare-fun P24 () Bool)
(declare-fun P25 () Bool)
(declare-fun P26 () Bool)
(declare-fun P27 () Bool)
(declare-fun P28 () Bool)
(declare-fun P29 () Bool)
(declare-fun P30 () Bool)
(declare-fun P31 () Bool)
(declare-fun P32 () Bool)
(declare-fun P33 () Bool)
(declare-fun P34 () Bool)
(declare-fun P35 () Bool)
(declare-fun P36 () Bool)
(declare-fun P37 () Bool)
(declare-fun P38 () Bool)
(declare-fun P39 () Bool)
(declare-fun P40 () Bool)
(declare-fun P41 () Bool)
(declare-fun P42 () Bool)
(declare-fun P43 () Bool)
(declare-fun P44 () Bool)
(declare-fun P45 () Bool)
(declare-fun P46 () Bool)
(declare-fun P47 () Bool)
(declare-fun P48 () Bool)
(declare-fun P49 () Bool)
(assert (let ((?v_15 (* 15 x16)) (?v_13 (* 12 x2))) (let ((?v_163 (< (+ (- ?v_13 ?v_15) (* 27 x9)) 10)) (?v_14 (<= (- (+ (* 15 x25) (* 4 x46)) (* 15 x4)) 6)) (?v_16 (* 13 x12)) (?v_191 (<= (+ (- (* 22 x32) (* 4 x3)) (* 27 x5)) 1))) (let ((?v_2 (= (- (- (* 14 x28) (* 21 x35)) ?v_16) 15)) (?v_84 (<= (+ (- (* 12 x27) (* 21 x12)) (* 8 x12)) 17)) (?v_111 (<= (- (- (* 26 x2) (* 26 x35)) (* 15 x24)) 0)) (?v_59 (< (- (- (* 18 x25) (* 4 x14)) (* 13 x32)) 18)) (?v_150 (<= (- (+ (* 5 x3) (* 18 x36)) (* 6 x31)) 3)) (?v_0 (<= (- (- (* 9 x3) (* 18 x5)) (* 10 x7)) 2)) (?v_4 (distinct (- (- (* 9 x48) (* 11 x47)) (* 2 x20)) 13)) (?v_6 (* 9 x19)) (?v_64 (< (+ (- (* 20 x11) (* 26 x14)) (* 12 x36)) 6)) (?v_25 (< (- (+ (* 9 x24) (* 20 x43)) (* 27 x8)) 27)) (?v_21 (distinct x24 (f0_2 x5 x2))) (?v_28 (f0_1 x43))) (let ((?v_171 (distinct ?v_28 (f0_2 x36 x28))) (?v_113 (distinct (f0_1 x23) x17)) (?v_106 (= x40 (f0_2 x16 x36))) (?v_78 (f0_1 x20)) (?v_79 (f0_1 x38))) (let ((?v_100 (distinct ?v_78 ?v_79)) (?v_65 (f0_1 x49))) (let ((?v_81 (distinct x24 ?v_65)) (?v_7 (= (f0_2 x11 x35) x16)) (?v_12 (f0_1 x25)) (?v_45 (f0_1 x36))) (let ((?v_99 (distinct ?v_12 ?v_45)) (?v_114 (f0_1 x47))) (let ((?v_158 (distinct ?v_114 ?v_65)) (?v_22 (distinct (f0_1 x45) (f0_1 x6))) (?v_19 (f0_1 x42))) (let ((?v_10 (= ?v_65 ?v_19)) (?v_195 (distinct (f0_2 x15 x4) (f0_1 x10))) (?v_75 (= (f0_2 x36 x18) (f0_2 x23 x15))) (?v_33 (distinct (f0_2 x9 x37) (f0_2 x26 x38))) (?v_117 (f0_1 x5))) (let ((?v_50 (= ?v_117 (f0_1 x0))) (?v_42 (= (f0_2 x45 x41) (f0_2 x9 x49))) (?v_47 (= (f0_2 x33 x28) (f0_2 x12 x48))) (?v_30 (f0_1 x7))) (let ((?v_46 (distinct (f0_2 x7 x14) ?v_30)) (?v_86 (= x45 x3)) (?v_49 (= x33 x15)) (?v_41 (= (f0_2 x34 x8) x48)) (?v_89 (= (f0_2 x35 x44) (f0_2 x18 x4))) (?v_162 (distinct ?v_45 (f0_2 x5 x3))) (?v_108 (= x8 (f0_2 x16 x8))) (?v_127 (f0_1 x29))) (let ((?v_186 (= (f0_1 x9) ?v_127)) (?v_264 (= (f0_2 x18 x16) ?v_78)) (?v_29 (f0_1 x14))) (let ((?v_71 (= (f0_2 x42 x17) ?v_29)) (?v_112 (distinct (f0_2 x27 x49) x22)) (?v_105 (= x39 x35)) (?v_131 (f0_1 x44))) (let ((?v_174 (= ?v_131 x35)) (?v_221 (= ?v_29 x22)) (?v_215 (= (f0_2 x31 x38) (f0_1 x26))) (?v_24 (= (f0_1 x24) (f0_2 x48 x17))) (?v_43 (distinct (f0_1 x39) (f0_2 x21 x25))) (?v_128 (= ?v_28 ?v_30)) (?v_134 (distinct x24 ?v_117)) (?v_104 (distinct (f0_1 x48) x11)) (?v_118 (= (f0_1 x19) ?v_114)) (?v_145 (= (f0_2 x6 x24) ?v_45)) (?v_243 (= (f0_1 x41) (f0_2 x10 x29))) (?v_74 (= ?v_12 (f0_2 x37 x17))) (?v_140 (= ?v_19 (f0_2 x45 x25))) (?v_91 (distinct ?v_79 x43)) (?v_37 (distinct (f0_1 x21) (f0_1 x32))) (?v_58 (distinct (f0_1 x16) x44)) (?v_144 (= ?v_127 x34)) (?v_8 (= ?v_131 (f0_2 x22 x18))) (?v_167 (distinct x25 (f0_2 x41 x0))) (?v_227 (distinct (f0_1 x31) x3)) (?v_137 (distinct x4 x5))) (let ((?v_52 (not ?v_118)) (?v_204 (not ?v_104)) (?v_11 (not ?v_0)) (?v_169 (not ?v_74)) (?v_230 (not ?v_14)) (?v_101 (not ?v_2)) (?v_17 (not ?v_112)) (?v_151 (not ?v_42)) (?v_20 (not ?v_221)) (?v_92 (not P32)) (?v_216 (not ?v_128)) (?v_62 (not P3)) (?v_247 (not ?v_25)) (?v_236 (not ?v_59)) (?v_217 (not ?v_8)) (?v_76 (not ?v_105)) (?v_183 (not ?v_49)) (?v_207 (not ?v_7)) (?v_209 (not P27)) (?v_253 (not ?v_21)) (?v_138 (not ?v_10)) (?v_34 (not P39)) (?v_70 (not P29)) (?v_55 (not P31)) (?v_213 (not ?v_99)) (?v_18 (not ?v_264)) (?v_31 (not ?v_163)) (?v_110 (not P21)) (?v_66 (not P20)) (?v_224 (not P1)) (?v_32 (not ?v_140)) (?v_35 (not ?v_22)) (?v_38 (not ?v_24)) (?v_36 (not P48)) (?v_56 (not P49)) (?v_201 (not P8)) (?v_155 (not ?v_171)) (?v_69 (not P35)) (?v_194 (not P14)) (?v_142 (not P13)) (?v_44 (not ?v_33)) (?v_73 (not P28)) (?v_120 (not ?v_37)) (?v_96 (not P43)) (?v_257 (not P19)) (?v_61 (not P18)) (?v_80 (not ?v_145)) (?v_242 (not ?v_47)) (?v_202 (not ?v_75)) (?v_60 (not P10)) (?v_197 (not ?v_227)) (?v_222 (not ?v_50)) (?v_63 (not ?v_43)) (?v_203 (not ?v_162)) (?v_205 (not ?v_58)) (?v_235 (not ?v_111)) (?v_210 (not P15)) (?v_152 (not P24)) (?v_88 (not ?v_41)) (?v_82 (not ?v_64)) (?v_123 (not P41)) (?v_115 (not P12)) (?v_255 (not ?v_71)) (?v_143 (not P11)) (?v_109 (not P46)) (?v_132 (not P7)) (?v_176 (not P0)) (?v_102 (not ?v_243)) (?v_239 (not P34)) (?v_129 (not ?v_86)) (?v_97 (not P4)) (?v_198 (not P17)) (?v_220 (not P26)) (?v_254 (not P45)) (?v_233 (not P25)) (?v_126 (not ?v_84)) (?v_193 (not ?v_134)) (?v_184 (not P22)) (?v_139 (not P44)) (?v_182 (not ?v_195)) (?v_159 (not P38)) (?v_263 (not P37)) (?v_192 (not ?v_100)) (?v_187 (not P33)) (?v_154 (not ?v_81)) (?v_147 (not ?v_4)) (?v_212 (not ?v_150)) (?v_170 (not ?v_137)) (?v_248 (not P36)) (?v_168 (not ?v_144))) (let ((?v_261 (or P12 ?v_168)) (?v_232 (not P5)) (?v_164 (not ?v_108)) (?v_185 (not ?v_106)) (?v_241 (not ?v_167)) (?v_249 (not ?v_113)) (?v_196 (not ?v_174)) (?v_258 (not P40)) (?v_240 (not ?v_215)) (?v_228 (not P30)) (?v_206 (not P23)) (?v_226 (not ?v_191)) (?v_244 (not ?v_91)) (?v_260 (not P2)) (?v_246 (or ?v_66 ?v_14)) (?v_238 (not P6)) (?v_250 (not P47)) (?v_251 (not P16)) (?v_219 (not ?v_46)) (?v_259 (not P42)) (?v_266 (not P9)) (?v_256 (not ?v_89)) (?v_68 (< (- (- ?v_13 0) ?v_6) 4)) (?v_188 (<= (+ (- x19 (* 25 x12)) (* 11 x23)) 21))) (let ((?v_190 (not ?v_188)) (?v_72 (<= (- (* 20 x39) (* 9 x26)) 13)) (?v_153 (distinct (* 2 x24) 16))) (let ((?v_149 (not ?v_153)) (?v_146 (not ?v_68)) (?v_135 (= (+ (* 8 x46) (* 10 x29) (* 5 x34)) 3)) (?v_172 (not ?v_72)) (?v_225 (<= (+ (* 16 x46) (* 4 x19) (* 17 x48)) 10))) (let ((?v_208 (not ?v_225)) (?v_245 (not ?v_135)) (?v_173 (< (+ (- 0 (* 15 x7)) (* 3 x40)) 0))) (let ((?v_214 (not ?v_173)) (?v_1 (<= (- (- (* (- 6) x11) 0) (* 15 x39)) 4)) (?v_121 (< (- (- (* (- 13) x13) (* 5 x20)) (* 14 x10)) 0)) (?v_67 (= (+ (* (- 15) x2) x43 (* 11 x22)) 18))) (let ((?v_237 (not ?v_1)) (?v_98 (< (- (* (- 10) x19) (* 22 x8)) (- 11)))) (let ((?v_3 (not ?v_98)) (?v_141 (< (+ (* 21 x43) (* 16 x5) (* 25 x43)) (- 18)))) (let ((?v_85 (not ?v_141)) (?v_51 (< (+ (* (- 11) x7) (* 2 x15) (* 15 x47)) 24))) (let ((?v_133 (not ?v_51)) (?v_103 (distinct (- (* (- 23) x20) 0) 6))) (let ((?v_9 (not ?v_103)) (?v_54 (<= (+ (- (* (- 13) x26) (* 25 x48)) (* 22 x27)) 26))) (let ((?v_5 (not ?v_54)) (?v_27 (= (- (- (* 11 x0) (* 6 x11)) (* 19 x23)) (- 15)))) (let ((?v_93 (not ?v_27)) (?v_57 (<= (+ (- (* (- 11) x43) (* 12 x12)) (* 10 x49)) (- 21))) (?v_218 (<= (- (+ (* (- 23) x24) (* 8 x7)) ?v_6) 5))) (let ((?v_90 (not ?v_218)) (?v_26 (< (+ (* 9 x11) (* 7 x27) (* 3 x5)) (- 18))) (?v_262 (distinct (+ (- (* (- 15) x32) (* 20 x33)) (* 11 x4)) (- 8)))) (let ((?v_23 (not ?v_262)) (?v_116 (<= (+ (* 19 x40) (* 10 x14) (* 17 x43)) (- 2)))) (let ((?v_53 (not ?v_116)) (?v_48 (<= (- (* (- 22) x31) (* 20 x20)) (- 21))) (?v_165 (< (+ (- ?v_15 (* 25 x32)) ?v_16) (- 24))) (?v_211 (= (- (- (* (- 13) x22) (* 13 x38)) (* 20 x49)) 0))) (let ((?v_39 (not ?v_211)) (?v_40 (not ?v_26)) (?v_83 (<= (+ (* (- 20) x5) (* 11 x32) (* 11 x15)) 23)) (?v_122 (<= (+ (- (* (- 19) x20) (* 11 x20)) (* 7 x36)) (- 9)))) (let ((?v_166 (not ?v_122)) (?v_77 (<= (+ (* 23 x20) (* 5 x24) (* 13 x23)) (- 5)))) (let ((?v_252 (not ?v_77)) (?v_157 (< (- (+ (* 27 x15) (* 24 x7)) (* 15 x18)) (- 28)))) (let ((?v_94 (not ?v_157)) (?v_124 (<= (- (- (* (- 25) x27) (* 17 x39)) (* 24 x47)) 0))) (let ((?v_87 (not ?v_124)) (?v_148 (<= (- (+ (* (- 22) x19) (* 12 x40)) (* 21 x13)) (- 10))) (?v_181 (not ?v_67)) (?v_156 (<= (+ (- (* (- 8) x30) (* 27 x24)) (* 14 x6)) (- 2)))) (let ((?v_95 (not ?v_156)) (?v_119 (<= (+ (* (- 8) x31) (* 25 x26) (* 14 x35)) 9))) (let ((?v_107 (not ?v_119)) (?v_177 (<= (+ (* 7 x41) (* 11 x26) (* 8 x24)) (- 3)))) (let ((?v_179 (not ?v_177)) (?v_136 (<= (+ (- (* 17 x27) (* 4 x25)) (* 19 x14)) (- 18)))) (let ((?v_130 (not ?v_136)) (?v_125 (not ?v_121)) (?v_160 (= (- (+ (* (- 14) x49) (* 12 x37)) (* 3 x31)) 19))) (let ((?v_175 (not ?v_160)) (?v_161 (< (- (+ (* (- 27) x29) (* 27 x13)) (* 21 x20)) (- 15)))) (let ((?v_231 (not ?v_161)) (?v_229 (not ?v_165)) (?v_180 (distinct (- (+ (* (- 13) x37) (* 9 x41)) (* 3 x20)) 19))) (let ((?v_189 (not ?v_180)) (?v_178 (not ?v_57)) (?v_199 (< (+ (- (* (- 19) x14) (* 3 x49)) (* 19 x45)) (- 7))) (?v_200 (not ?v_148))) (let ((?v_223 (not ?v_199)) (?v_234 (not ?v_83)) (?v_265 (not ?v_48))) (and (and (and (and (and (and (and (and (and (and (and (and (and (and (and (and (and (and (and (and (and (and (and (and (and (and (and (and (and (and (and (and (and (and (and (and (and (and (and (and (and (and (and (and (and (and (and (and (and (and (and (and (and (and (and (and (and (and (and (and (and (and (and (and (and (and (and (and (and (and (and (and (and (and (and (and (and (and (and (and (and (and (and (and (and (and (and (and (and (and (and (and (and (and (and (and (and (and (and (and (and (and (and (and (and (and (and (and (and (and (and (and (and (and (and (and (and (and (and (and (and (and (and (and (and (and (and (and (and (and (and (and (and (and (and (and (and (and (and (and (and (and (and (and (and (and (and (and (and (and (and (and (and (and (and (and (and (and (and (and (and (and (and (and (and (and (and (and (and (and (and (and (and (and (and (and (and (and (and (and (and (and (and (and (and (and (and (and (and (and (and (and (and (and (and (and (and (and (and (and (and (and (and (and (and (and (and (and (and (and (and (and (and (and (and (and (and (and (and (and (and (and (and (and (and (and (and (and (and (and (and (and (and (and (and (and (and (and (and (and (and (and (and (and (and (and (and (and (and (and (and (and (and (and (and (and (and (and (and (and (and (and (and (and (and (and (and (and (and (and (and (and (and (and (and (and (and (and (and (and (and (and (and (and (and (and (and (and (and (and (and (and (and (and (and (and (and (and (and (and (and (and (and (and (and (and (and (and (and (and (and (and (and (and (and (and (and (and (and (and (and (and (and (and (and (and (and (and (and (and (and (and (and (and (and (and (and (and (and (and (and (and (and (and (and (and (and (and (and (and (and (and (and (and (and (and (and (and (and (and (and (and (and (and (and (and (and (and (and (and (and (and (and (and (and (and (and (and (and (and (and (and (and (and (and (and (and (and (and (and (and (and (and (and (and (and (and (and (and (and (and (and (and (and (and (and (and (and (and (and (and (and (and (and (and (and (and (and (and (and (and (and (and (and (and (and (and (and (and (and (and (and (and (and (and (and (and (and (and (and (and (and (and (and (and (and (and (and (and (and (and (and (and (and (and (and (and (and (and (and (and (and (and (and (and (and (and (and (and (and (and (and (and (and (and (and (and (and (and (and (and (and (and (and (and (and (and (and (and (and (and (and (and (and (and (and (and (and (and (and (and (and (and (and (and (and (and (and (and (and (and (and (and (and (and (and (and (and (and (and (and (and (and (and (and (and (and (and (and (and (and (and (and (and (and (and (and (and (and (and (and (and (and (and (and (and (and (and (and (and (and (and (and (and (and (and (and (and (and (and (and (and (and (and (and (and (and (and (and (and (and (and (and (and (and (and (and (and (and (and (and (and (and (and (and (and (and (and (and (and (and (and (and (and (and (and (and (and (and (or (or ?v_167 P42) ?v_52) (or (or ?v_1 ?v_204) ?v_121)) (or (or ?v_11 ?v_169) P16)) (or (or ?v_67 ?v_230) ?v_37)) (or (or ?v_41 ?v_101) ?v_84)) (or (or ?v_0 ?v_17) ?v_237)) (or (or ?v_3 ?v_7) ?v_10)) (or (or ?v_85 ?v_113) ?v_133)) (or (or P35 P6) ?v_151)) (or (or ?v_2 ?v_9) ?v_20)) (or (or ?v_5 ?v_92) ?v_4)) (or (or ?v_137 ?v_216) P20)) (or (or ?v_3 ?v_93) ?v_4)) (or (or ?v_33 ?v_144) ?v_57)) (or (or ?v_62 ?v_247) ?v_236)) (or (or ?v_191 ?v_217) ?v_91)) (or (or ?v_90 P18) ?v_76)) (or (or ?v_5 ?v_68) ?v_183)) (or (or ?v_207 P47) ?v_8)) (or (or ?v_26 P44) ?v_9)) (or (or ?v_209 ?v_253) ?v_86)) (or (or ?v_138 ?v_24) ?v_34)) (or (or ?v_23 ?v_64) ?v_70)) (or (or ?v_55 ?v_11) ?v_53)) (or (or ?v_48 ?v_213) ?v_18)) (or (or ?v_31 P46) P34)) (or (or ?v_14 P33) ?v_110)) (or (or ?v_165 ?v_66) ?v_17)) (or (or ?v_39 ?v_18) ?v_224)) (or (or ?v_22 P17) ?v_32)) (or (or ?v_20 ?v_21) P23)) (or (or P40 ?v_35) P7)) (or (or ?v_23 ?v_18) ?v_38)) (or (or P34 ?v_3) ?v_36)) (or (or ?v_25 ?v_56) ?v_40)) (or (or ?v_201 ?v_27) ?v_155)) (or (or ?v_47 ?v_83) ?v_69)) (or (or ?v_194 ?v_71) P39)) (or (or P29 ?v_46) ?v_190)) (or (or ?v_142 ?v_72) P33)) (or (or ?v_31 ?v_32) ?v_44)) (or (or P13 ?v_34) ?v_43)) (or (or ?v_73 P10) ?v_35)) (or (or ?v_50 P49) ?v_58)) (or (or P1 ?v_36) ?v_149)) (or (or ?v_120 ?v_27) ?v_96)) (or (or ?v_257 ?v_38) P16)) (or (or ?v_39 ?v_40) ?v_166)) (or (or P37 P9) ?v_252)) (or (or ?v_41 ?v_42) ?v_38)) (or (or P23 ?v_61) ?v_43)) (or (or ?v_8 ?v_44) ?v_80)) (or (or ?v_46 ?v_20) ?v_18)) (or (or ?v_242 ?v_48) ?v_202)) (or (or ?v_27 ?v_60) ?v_197)) (or (or ?v_49 P13) P5)) (or (or ?v_222 ?v_0) ?v_63)) (or (or P41 P3) ?v_51)) (or (or ?v_94 P25) P9)) (or (or ?v_52 ?v_31) ?v_53)) (or (or ?v_34 ?v_54) ?v_24)) (or (or ?v_55 ?v_56) P45)) (or (or ?v_203 ?v_52) ?v_57)) (or (or ?v_205 ?v_59) ?v_235)) (or (or ?v_210 ?v_60) ?v_61)) (or (or ?v_87 ?v_152) ?v_62)) (or (or P3 ?v_88) P38)) (or (or ?v_63 P5) ?v_148)) (or (or ?v_82 ?v_37) ?v_81)) (or (or P44 ?v_66) ?v_123)) (or (or ?v_115 ?v_67) ?v_146)) (or (or ?v_17 ?v_69) ?v_10)) (or (or ?v_50 ?v_70) ?v_61)) (or (or ?v_255 ?v_72) ?v_73)) (or (or ?v_74 ?v_70) P38)) (or (or ?v_143 ?v_109) ?v_73)) (or (or ?v_75 ?v_106) ?v_33)) (or (or ?v_132 P18) ?v_76)) (or (or ?v_77 ?v_61) ?v_23)) (or (or ?v_5 ?v_100) ?v_181)) (or (or ?v_80 P10) ?v_176)) (or (or P42 ?v_95) ?v_102)) (or (or ?v_51 ?v_49) ?v_81)) (or (or ?v_82 ?v_83) ?v_84)) (or (or ?v_85 P13) ?v_239)) (or (or ?v_129 ?v_35) P44)) (or (or ?v_18 ?v_89) P37)) (or (or P18 ?v_87) P0)) (or (or P48 ?v_88) P31)) (or (or P27 ?v_89) P38)) (or (or ?v_90 ?v_91) ?v_97)) (or (or P32 P29) P7)) (or (or ?v_92 P43) ?v_108)) (or (or ?v_107 ?v_93) ?v_94)) (or (or P14 P47) ?v_89)) (or (or ?v_43 ?v_95) P27)) (or (or ?v_96 ?v_179) ?v_97)) (or (or ?v_98 ?v_34) ?v_99)) (or (or ?v_100 ?v_46) ?v_101)) (or (or ?v_55 P45) ?v_102)) (or (or ?v_91 ?v_35) ?v_103)) (or (or P5 ?v_98) ?v_34)) (or (or ?v_18 ?v_198) ?v_14)) (or (or ?v_104 ?v_105) ?v_106)) (or (or P3 P47) ?v_107)) (or (or ?v_52 ?v_220) P25)) (or (or ?v_55 P46) ?v_18)) (or (or ?v_108 P15) ?v_61)) (or (or ?v_109 ?v_82) ?v_41)) (or (or ?v_135 ?v_95) ?v_26)) (or (or ?v_110 ?v_111) ?v_44)) (or (or P31 ?v_112) ?v_254)) (or (or ?v_112 P30) ?v_113)) (or (or ?v_50 ?v_233) ?v_53)) (or (or (not ?v_158) ?v_111) ?v_126)) (or (or ?v_115 ?v_116) P7)) (or (or ?v_1 ?v_81) ?v_193)) (or (or P48 ?v_118) ?v_119)) (or (or ?v_130 ?v_56) ?v_3)) (or (or ?v_120 ?v_184) ?v_172)) (or (or ?v_139 ?v_182) P18)) (or (or ?v_74 ?v_125) P6)) (or (or P10 P34) ?v_77)) (or (or ?v_159 ?v_263) ?v_48)) (or (or ?v_100 ?v_122) ?v_123)) (or (or ?v_9 ?v_124) ?v_125)) (or (or ?v_192 ?v_82) ?v_71)) (or (or ?v_187 ?v_48) P12)) (or (or P48 P15) ?v_154)) (or (or ?v_126 ?v_186) ?v_128)) (or (or P15 ?v_129) P29)) (or (or ?v_77 ?v_175) ?v_130)) (or (or ?v_174 P43) ?v_100)) (or (or P28 ?v_89) ?v_208)) (or (or ?v_8 P38) ?v_147)) (or (or ?v_106 ?v_56) ?v_132)) (or (or P13 ?v_133) ?v_134)) (or (or ?v_26 ?v_212) ?v_50)) (or (or P8 ?v_245) ?v_77)) (or (or ?v_68 ?v_85) P22)) (or (or ?v_136 P23) ?v_137)) (or (or ?v_22 ?v_170) ?v_138)) (or (or ?v_106 ?v_111) ?v_139)) (or (or ?v_231 ?v_140) ?v_94)) (or (or ?v_138 P49) ?v_136)) (or (or ?v_126 ?v_248) ?v_109)) (or (or ?v_31 ?v_141) ?v_125)) (or (or ?v_24 ?v_142) ?v_11)) (or (or ?v_31 ?v_87) ?v_129)) (or (or ?v_136 ?v_143) ?v_105)) (or ?v_261 ?v_145)) (or (or ?v_116 ?v_232) ?v_146)) (or (or ?v_147 ?v_148) ?v_149)) (or (or ?v_150 P26) P20)) (or (or ?v_151 ?v_152) ?v_96)) (or (or ?v_153 ?v_69) ?v_154)) (or (or ?v_90 ?v_152) ?v_155)) (or (or ?v_156 ?v_157) ?v_158)) (or (or ?v_164 ?v_10) P8)) (or (or ?v_159 ?v_62) ?v_155)) (or (or ?v_160 ?v_161) ?v_54)) (or (or ?v_142 ?v_162) ?v_163)) (or (or P31 ?v_14) ?v_151)) (or (or ?v_164 ?v_132) ?v_51)) (or (or ?v_156 ?v_132) ?v_20)) (or (or ?v_185 ?v_229) P15)) (or (or ?v_11 ?v_69) ?v_189)) (or (or ?v_124 P43) ?v_173)) (or (or ?v_11 ?v_8) ?v_178)) (or (or ?v_75 ?v_77) ?v_90)) (or (or ?v_98 P8) ?v_166)) (or (or ?v_71 ?v_241) ?v_153)) (or (or ?v_168 ?v_145) ?v_162)) (or (or ?v_26 P5) ?v_169)) (or (or ?v_142 P31) ?v_157)) (or (or P18 ?v_170) ?v_171)) (or (or ?v_69 ?v_121) ?v_249)) (or (or ?v_172 P23) ?v_132)) (or (or P27 ?v_214) ?v_14)) (or (or ?v_196 ?v_106) ?v_100)) (or (or ?v_175 P40) P0)) (or (or ?v_199 P40) ?v_77)) (or (or ?v_146 ?v_151) ?v_98)) (or (or ?v_176 ?v_101) ?v_106)) (or (or ?v_200 ?v_21) ?v_177)) (or (or ?v_163 ?v_178) ?v_170)) (or (or P41 ?v_179) ?v_0)) (or (or ?v_180 ?v_141) ?v_181)) (or (or P42 ?v_70) ?v_135)) (or (or ?v_110 ?v_7) ?v_258)) (or (or P6 ?v_182) ?v_71)) (or (or ?v_51 ?v_77) ?v_183)) (or (or ?v_184 P41) ?v_66)) (or (or ?v_84 ?v_10) ?v_173)) (or (or ?v_66 ?v_174) ?v_93)) (or (or ?v_148 ?v_155) ?v_185)) (or (or ?v_59 ?v_147) ?v_240)) (or (or ?v_95 ?v_186) ?v_71)) (or (or ?v_228 ?v_187) P34)) (or (or ?v_137 P11) ?v_85)) (or (or ?v_56 ?v_89) P42)) (or (or P13 ?v_136) ?v_37)) (or (or ?v_188 ?v_3) P34)) (or (or ?v_122 ?v_63) P5)) (or (or ?v_71 ?v_189) ?v_190)) (or (or ?v_33 ?v_206) ?v_189)) (or (or ?v_151 ?v_21) ?v_82)) (or (or P14 ?v_138) ?v_226)) (or (or P7 ?v_17) ?v_119)) (or (or ?v_17 ?v_143) ?v_7)) (or (or P12 ?v_177) ?v_192)) (or (or P18 ?v_133) ?v_135)) (or (or ?v_193 ?v_194) ?v_122)) (or (or ?v_71 ?v_80) ?v_74)) (or (or ?v_174 ?v_110) ?v_130)) (or (or ?v_192 ?v_195) ?v_1)) (or (or ?v_126 ?v_244) ?v_119)) (or (or ?v_119 ?v_130) ?v_122)) (or (or ?v_151 ?v_196) ?v_197)) (or (or P2 ?v_198) P35)) (or (or ?v_118 ?v_194) ?v_69)) (or (or ?v_223 ?v_73) ?v_72)) (or (or ?v_122 ?v_103) ?v_92)) (or (or P24 ?v_200) P6)) (or (or P22 ?v_103) ?v_260)) (or (or ?v_10 ?v_171) ?v_39)) (or (or ?v_116 ?v_145) ?v_136)) (or (or ?v_98 ?v_75) P6)) (or (or ?v_201 ?v_202) ?v_186)) (or (or ?v_126 ?v_184) ?v_95)) (or (or ?v_188 ?v_149) ?v_0)) (or (or ?v_168 P2) ?v_95)) (or (or ?v_203 P26) ?v_172)) (or (or ?v_14 ?v_204) ?v_205)) (or ?v_246 ?v_206)) (or (or ?v_207 ?v_208) ?v_75)) (or (or ?v_147 ?v_133) ?v_99)) (or (or ?v_70 ?v_118) ?v_41)) (or (or ?v_156 ?v_70) ?v_109)) (or (or ?v_23 ?v_238) ?v_161)) (or (or ?v_35 ?v_250) ?v_160)) (or (or ?v_83 ?v_7) ?v_73)) (or (or ?v_194 ?v_11) ?v_191)) (or (or ?v_100 ?v_209) P37)) (or (or ?v_116 ?v_81) ?v_200)) (or (or ?v_50 ?v_168) ?v_55)) (or (or ?v_210 ?v_145) ?v_211)) (or (or P27 ?v_145) ?v_7)) (or (or ?v_44 P1) ?v_234)) (or (or ?v_152 ?v_179) P39)) (or (or ?v_11 ?v_20) ?v_8)) (or (or ?v_80 ?v_154) ?v_251)) (or (or ?v_36 ?v_140) ?v_152)) (or (or ?v_159 ?v_110) ?v_212)) (or (or ?v_189 ?v_213) ?v_121)) (or (or ?v_214 ?v_177) ?v_54)) (or (or P27 ?v_156) ?v_215)) (or (or ?v_157 ?v_216) ?v_217)) (or (or ?v_41 ?v_157) P23)) (or (or ?v_122 ?v_218) P26)) (or (or ?v_103 ?v_184) P36)) (or (or P25 ?v_67) ?v_219)) (or (or ?v_86 ?v_126) ?v_172)) (or (or ?v_192 P27) ?v_102)) (or (or ?v_179 P30) ?v_52)) (or (or ?v_18 ?v_140) ?v_118)) (or (or ?v_8 ?v_184) ?v_189)) (or (or P38 ?v_219) ?v_4)) (or (or ?v_210 ?v_220) P18)) (or (or ?v_221 P49) ?v_222)) (or (or ?v_134 ?v_223) P20)) (or (or P37 ?v_61) ?v_192)) (or (or ?v_10 P18) ?v_177)) (or (or ?v_180 P13) ?v_104)) (or (or P13 ?v_54) ?v_215)) (or (or P38 ?v_87) ?v_97)) (or (or ?v_121 ?v_24) ?v_224)) (or (or ?v_179 ?v_178) ?v_63)) (or (or ?v_166 ?v_140) ?v_181)) (or (or ?v_69 P8) P29)) (or (or ?v_153 ?v_225) ?v_211)) (or (or P15 ?v_56) ?v_129)) (or (or ?v_226 ?v_47) ?v_81)) (or (or ?v_155 ?v_7) ?v_68)) (or (or ?v_72 ?v_77) ?v_34)) (or (or ?v_50 ?v_82) ?v_227)) (or (or ?v_219 ?v_111) ?v_32)) (or (or ?v_209 ?v_67) P47)) (or (or ?v_129 ?v_198) ?v_176)) (or (or P30 ?v_158) ?v_169)) (or (or ?v_193 ?v_35) P30)) (or (or ?v_206 ?v_4) ?v_34)) (or (or ?v_72 ?v_129) ?v_70)) (or (or ?v_140 ?v_35) ?v_228)) (or (or ?v_4 ?v_173) ?v_105)) (or (or ?v_139 ?v_167) ?v_18)) (or (or ?v_50 P46) P0)) (or (or ?v_174 ?v_41) ?v_176)) (or (or ?v_157 ?v_229) ?v_142)) (or (or P31 ?v_146) ?v_126)) (or (or ?v_103 P10) ?v_145)) (or (or ?v_151 ?v_118) ?v_86)) (or (or ?v_37 P36) P8)) (or (or ?v_207 ?v_68) ?v_230)) (or (or ?v_2 ?v_231) ?v_39)) (or (or ?v_223 ?v_70) ?v_44)) (or (or ?v_66 ?v_155) ?v_4)) (or (or ?v_169 ?v_99) ?v_165)) (or (or ?v_60 P16) ?v_26)) (or (or ?v_180 ?v_159) ?v_192)) (or (or P29 ?v_173) ?v_154)) (or (or ?v_136 ?v_62) ?v_164)) (or (or ?v_178 ?v_81) P29)) (or (or ?v_232 ?v_57) ?v_102)) (or (or ?v_182 P16) ?v_187)) (or (or (not ?v_186) ?v_233) ?v_234)) (or (or P8 ?v_5) ?v_196)) (or (or P29 ?v_235) ?v_132)) (or (or ?v_91 P24) ?v_224)) (or (or ?v_107 ?v_182) ?v_190)) (or (or ?v_236 ?v_201) ?v_80)) (or (or ?v_7 ?v_158) ?v_54)) (or (or P0 P42) ?v_38)) (or (or ?v_89 ?v_7) ?v_35)) (or (or ?v_69 ?v_120) ?v_145)) (or (or ?v_234 ?v_110) P13)) (or (or ?v_178 ?v_162) P12)) (or (or P46 ?v_111) ?v_133)) (or (or ?v_237 P35) ?v_238)) (or (or ?v_123 ?v_165) ?v_151)) (or (or P11 ?v_48) ?v_22)) (or (or ?v_134 ?v_217) ?v_109)) (or (or ?v_115 ?v_137) ?v_35)) (or (or ?v_11 ?v_75) ?v_62)) (or (or ?v_202 ?v_14) P10)) (or (or ?v_239 ?v_82) ?v_46)) (or (or P39 ?v_229) ?v_68)) (or (or ?v_240 ?v_66) ?v_111)) (or (or ?v_46 ?v_241) ?v_144)) (or (or P21 P39) ?v_242)) (or (or ?v_5 ?v_23) ?v_161)) (or (or ?v_11 ?v_237) ?v_58)) (or (or ?v_197 P43) ?v_130)) (or (or ?v_188 ?v_199) ?v_88)) (or (or ?v_136 P16) ?v_67)) (or (or P17 ?v_11) P34)) (or (or P8 ?v_21) ?v_193)) (or (or ?v_106 ?v_128) ?v_122)) (or (or P3 ?v_163) ?v_86)) (or (or ?v_243 ?v_85) ?v_105)) (or (or ?v_244 P20) ?v_212)) (or (or ?v_232 ?v_43) ?v_245)) (or (or P23 ?v_217) ?v_178)) (or (or P49 ?v_152) ?v_69)) (or (or ?v_101 ?v_116) ?v_259)) (or ?v_246 ?v_223)) (or (or ?v_241 ?v_231) ?v_60)) (or (or ?v_177 ?v_239) ?v_266)) (or (or ?v_247 ?v_55) P2)) (or (or P23 ?v_248) ?v_35)) (or (or ?v_49 ?v_42) P11)) (or (or ?v_224 P46) ?v_249)) (or (or ?v_1 ?v_116) ?v_198)) (or (or ?v_9 P43) ?v_250)) (or (or P22 ?v_110) P47)) (or (or ?v_80 ?v_256) P8)) (or (or ?v_76 ?v_21) ?v_109)) (or (or ?v_61 P21) ?v_137)) (or (or P38 ?v_251) P30)) (or (or ?v_34 ?v_252) ?v_139)) (or (or ?v_54 ?v_198) ?v_181)) (or (or ?v_89 ?v_5) ?v_7)) (or (or P32 P35) ?v_253)) (or (or P48 P36) ?v_254)) (or (or ?v_166 P42) ?v_150)) (or (or ?v_87 ?v_83) ?v_57)) (or (or ?v_237 ?v_70) ?v_72)) (or (or ?v_129 ?v_255) ?v_59)) (or (or ?v_135 ?v_182) ?v_203)) (or (or P17 ?v_62) ?v_256)) (or (or ?v_199 ?v_243) P41)) (or (or ?v_176 ?v_120) ?v_199)) (or (or ?v_152 ?v_37) ?v_158)) (or (or ?v_168 ?v_1) ?v_87)) (or (or P27 ?v_7) ?v_67)) (or (or ?v_255 ?v_233) P32)) (or (or ?v_210 P46) ?v_198)) (or (or ?v_174 P12) ?v_256)) (or (or ?v_199 ?v_107) P18)) (or (or ?v_92 P18) ?v_32)) (or (or ?v_182 ?v_57) ?v_137)) (or (or ?v_129 ?v_47) ?v_230)) (or (or ?v_21 P48) ?v_195)) (or (or P4 ?v_126) ?v_63)) (or (or P0 ?v_252) ?v_177)) (or (or ?v_209 ?v_178) ?v_55)) (or (or ?v_205 ?v_104) ?v_180)) (or (or ?v_124 ?v_178) ?v_151)) (or (or ?v_116 ?v_140) P44)) (or (or ?v_221 P4) ?v_17)) (or (or ?v_159 ?v_257) ?v_240)) (or (or P13 ?v_89) ?v_207)) (or (or ?v_209 ?v_109) ?v_122)) (or (or ?v_215 ?v_258) P24)) (or (or ?v_57 ?v_226) ?v_152)) (or (or P36 P32) ?v_23)) (or (or ?v_94 ?v_158) ?v_176)) (or (or ?v_183 ?v_81) ?v_240)) (or (or ?v_174 P14) ?v_100)) (or (or ?v_186 ?v_235) ?v_42)) (or (or ?v_76 ?v_11) ?v_230)) (or (or ?v_90 ?v_49) ?v_120)) (or (or ?v_152 ?v_225) ?v_251)) (or (or ?v_91 ?v_44) ?v_67)) (or (or ?v_41 ?v_81) ?v_86)) (or (or ?v_17 ?v_67) ?v_100)) (or (or P47 ?v_36) ?v_61)) (or (or ?v_37 P15) ?v_207)) (or (or ?v_212 ?v_241) ?v_168)) (or (or ?v_173 ?v_211) ?v_255)) (or (or ?v_207 ?v_147) ?v_257)) (or (or P41 ?v_198) ?v_22)) (or (or P39 ?v_196) ?v_169)) (or (or ?v_141 ?v_36) ?v_205)) (or (or ?v_214 ?v_72) P41)) (or (or ?v_188 ?v_265) ?v_259)) (or (or P26 ?v_3) ?v_99)) (or (or ?v_256 ?v_108) ?v_260)) (or (or ?v_55 P14) P32)) (or (or ?v_161 ?v_216) ?v_226)) (or ?v_261 ?v_111)) (or (or ?v_141 ?v_58) P18)) (or (or ?v_256 ?v_17) ?v_88)) (or (or ?v_241 ?v_220) ?v_77)) (or (or P45 ?v_55) ?v_262)) (or (or P9 ?v_186) ?v_208)) (or (or ?v_166 ?v_108) ?v_239)) (or (or ?v_66 ?v_21) ?v_11)) (or (or ?v_229 ?v_99) ?v_146)) (or (or ?v_41 ?v_135) ?v_205)) (or (or ?v_37 ?v_193) ?v_185)) (or (or ?v_77 ?v_228) ?v_234)) (or (or ?v_137 ?v_91) ?v_55)) (or (or ?v_179 ?v_218) ?v_111)) (or (or P31 P3) P6)) (or (or ?v_196 ?v_129) ?v_222)) (or (or ?v_252 ?v_40) ?v_186)) (or (or P14 ?v_85) ?v_80)) (or (or ?v_96 ?v_42) ?v_76)) (or (or P32 ?v_175) ?v_173)) (or (or P2 ?v_99) ?v_241)) (or (or ?v_69 ?v_218) ?v_134)) (or (or ?v_263 ?v_192) ?v_241)) (or (or ?v_181 ?v_18) ?v_33)) (or (or ?v_214 ?v_156) ?v_33)) (or (or ?v_105 ?v_56) ?v_224)) (or (or ?v_44 ?v_75) ?v_185)) (or (or ?v_228 ?v_50) P22)) (or (or ?v_229 ?v_167) ?v_84)) (or (or ?v_172 ?v_241) ?v_31)) (or (or ?v_259 ?v_148) ?v_245)) (or (or ?v_142 ?v_88) ?v_49)) (or (or ?v_60 ?v_91) P11)) (or (or ?v_137 ?v_39) ?v_254)) (or (or ?v_212 ?v_118) ?v_124)) (or (or ?v_195 ?v_81) ?v_102)) (or (or ?v_209 ?v_243) ?v_50)) (or (or ?v_76 ?v_96) ?v_210)) (or (or ?v_0 ?v_187) ?v_222)) (or (or P25 ?v_5) ?v_202)) (or (or ?v_5 ?v_22) ?v_46)) (or (or P25 ?v_146) ?v_193)) (or (or ?v_43 ?v_72) ?v_231)) (or (or ?v_135 ?v_4) ?v_11)) (or (or P47 P41) ?v_207)) (or (or P43 ?v_94) ?v_129)) (or (or ?v_26 P29) ?v_223)) (or (or ?v_11 ?v_103) ?v_170)) (or (or ?v_164 ?v_136) ?v_2)) (or (or ?v_58 P13) ?v_264)) (or (or P37 P13) ?v_134)) (or (or ?v_81 P22) P9)) (or (or P32 ?v_40) ?v_99)) (or (or ?v_98 ?v_46) ?v_111)) (or (or P23 ?v_179) ?v_120)) (or (or ?v_146 ?v_173) ?v_241)) (or (or ?v_132 ?v_162) ?v_168)) (or (or P33 ?v_155) ?v_212)) (or (or ?v_175 ?v_95) ?v_194)) (or (or ?v_222 P17) ?v_255)) (or (or ?v_136 ?v_4) ?v_143)) (or (or ?v_195 ?v_149) ?v_158)) (or (or ?v_265 ?v_170) ?v_126)) (or (or P15 ?v_36) ?v_153)) (or (or ?v_62 ?v_251) ?v_224)) (or (or ?v_47 ?v_259) ?v_83)) (or (or ?v_217 ?v_207) ?v_250)) (or (or P4 ?v_42) ?v_167)) (or (or ?v_158 ?v_161) ?v_168)) (or (or ?v_190 ?v_82) ?v_41)) (or (or ?v_98 ?v_98) ?v_211)) (or (or P49 ?v_243) ?v_50)) (or (or ?v_59 ?v_58) ?v_238)) (or (or ?v_247 ?v_215) ?v_87)) (or (or ?v_48 ?v_210) ?v_95)) (or (or ?v_216 ?v_245) ?v_120)) (or (or ?v_81 ?v_237) ?v_58)) (or (or ?v_139 ?v_224) ?v_182)) (or (or ?v_107 ?v_164) P6)) (or (or P1 ?v_217) P40)) (or (or P19 ?v_238) ?v_11)) (or (or ?v_234 ?v_102) P33)) (or (or ?v_215 ?v_197) ?v_32)) (or (or ?v_20 ?v_92) ?v_130)) (or (or P49 ?v_216) P14)) (or (or ?v_92 ?v_82) ?v_141)) (or (or ?v_245 ?v_49) ?v_150)) (or (or ?v_198 P25) ?v_256)) (or (or ?v_151 ?v_1) P5)) (or (or ?v_216 ?v_101) ?v_67)) (or (or ?v_34 ?v_153) ?v_179)) (or (or ?v_245 ?v_84) P41)) (or (or ?v_27 ?v_265) ?v_201)) (or (or P11 ?v_89) ?v_258)) (or (or ?v_200 ?v_257) P26)) (or (or ?v_207 ?v_139) P17)) (or (or P19 ?v_229) ?v_205)) (or (or ?v_37 ?v_157) P19)) (or (or ?v_8 ?v_128) P12)) (or (or ?v_214 P30) ?v_105)) (or (or ?v_222 ?v_177) ?v_24)) (or (or P42 ?v_231) ?v_243)) (or (or ?v_155 ?v_133) ?v_120)) (or (or ?v_212 ?v_0) P42)) (or (or ?v_101 P26) ?v_105)) (or (or P1 P43) ?v_75)) (or (or ?v_156 P8) P16)) (or (or ?v_243 ?v_159) ?v_92)) (or (or P11 ?v_181) ?v_72)) (or (or P9 ?v_24) ?v_67)) (or (or ?v_9 ?v_23) ?v_91)) (or (or ?v_138 ?v_4) P43)) (or (or ?v_102 ?v_205) ?v_245)) (or (or P38 P31) ?v_188)) (or (or P38 ?v_182) ?v_99)) (or (or ?v_264 ?v_68) ?v_263)) (or (or ?v_147 ?v_213) ?v_179)) (or (or ?v_145 ?v_68) ?v_250)) (or (or ?v_61 ?v_257) ?v_233)) (or (or ?v_72 ?v_119) ?v_259)) (or (or P5 ?v_190) ?v_185)) (or (or ?v_179 ?v_206) ?v_2)) (or (or ?v_61 ?v_183) ?v_108)) (or (or P32 ?v_210) ?v_193)) (or (or ?v_236 ?v_165) ?v_24)) (or (or ?v_53 ?v_67) ?v_72)) (or (or ?v_197 ?v_4) ?v_210)) (or (or ?v_227 P45) ?v_89)) (or (or ?v_2 P19) ?v_46)) (or (or ?v_247 ?v_210) P44)) (or (or ?v_9 P13) ?v_239)) (or (or ?v_21 ?v_74) ?v_123)) (or (or ?v_82 ?v_252) ?v_90)) (or (or ?v_171 ?v_245) ?v_74)) (or (or ?v_257 P42) P7)) (or (or ?v_112 ?v_212) ?v_129)) (or (or ?v_69 ?v_97) ?v_177)) (or (or ?v_44 P34) P18)) (or (or ?v_48 ?v_64) ?v_138)) (or (or ?v_237 ?v_181) ?v_81)) (or (or P11 ?v_3) ?v_202)) (or (or P35 ?v_147) ?v_193)) (or (or P17 ?v_157) P46)) (or (or P16 ?v_49) P49)) (or (or P10 ?v_43) ?v_72)) (or (or ?v_38 P34) ?v_194)) (or (or ?v_260 ?v_83) ?v_251)) (or (or ?v_200 ?v_175) ?v_207)) (or (or ?v_37 ?v_142) P35)) (or (or ?v_249 ?v_58) ?v_50)) (or (or ?v_223 P46) ?v_140)) (or (or ?v_188 P32) ?v_222)) (or (or P12 ?v_18) ?v_50)) (or (or P28 ?v_38) ?v_239)) (or (or ?v_116 ?v_89) ?v_200)) (or (or ?v_110 ?v_20) ?v_76)) (or (or ?v_81 ?v_48) ?v_193)) (or (or ?v_232 ?v_40) P25)) (or (or ?v_183 ?v_35) ?v_145)) (or (or ?v_230 P48) ?v_176)) (or (or P31 P4) ?v_62)) (or (or ?v_238 P45) P37)) (or (or ?v_137 ?v_33) P36)) (or (or ?v_228 ?v_266) ?v_17)) (or (or ?v_160 ?v_134) ?v_251)) (or (or P17 P37) ?v_5)) (or (or ?v_147 P16) ?v_113)) (or (or ?v_215 ?v_135) ?v_140)) (or (or ?v_177 ?v_86) ?v_27)) (or (or ?v_62 ?v_159) ?v_121))))))))))))))))))))))))))))))))))))))))))))))
(check-sat)
(exit)
